
  32    4
  10   10   10   10

   0   0   0   0   0  17 2 3 9 10 11 20 21 22 23 24 25 26 27 28 29 30 31 
  10  10  10  10  10   6 19 18 17 16 14 4 
   8  10  10  10  10   2 15 7 
   5  10  10  10  10   1 5 
   2  10  10  10  10   1 6 
   5  10  10  10  10   1 8 
   2  10  10  10  10   1 8 
   3  10  10  10  10   1 12 
   8  10  10  10  10   1 14 
   5  10  10  10  10   1 13 
   5  10  10  10  10   1 13 
  10  10  10  10  10   1 32
   4  10  10  10  10   1 32
   3  10  10  10  10   1 32
   2  10  10  10  10   1 32
   1  10  10  10  10   1 32
   2  10  10  10  10   1 32
   7  10  10  10  10   1 32
   2  10  10  10  10   1 32
   7  10  10  10  10   1 32
   7  10  10  10  10   1 32
   2  10  10  10  10   1 32
   3  10  10  10  10   1 32
   7  10  10  10  10   1 32
   7  10  10  10  10   1 32
   2  10  10  10  10   1 32
   7  10  10  10  10   1 32
   8  10  10  10  10   1 32
   8  10  10  10  10   1 32
   8  10  10  10  10   1 32
   1  10  10  10  10   1 32
   0   0   0   0   0   0 
